SAT
-37 -38 -39 -40 41 -42 -43 -44 -45 -46 -47 -48 -49 -50 51 -52 -53 -54 -118 -119 -120 -121 -122 -123 124 -125 -126 -127 -128 -129 -130 -131 -132 -133 134 -135 -199 -200 201 -202 -203 -204 -205 -206 -207 -208 209 -210 -211 -212 -213 -214 -215 -216 -298 -299 -300 -301 -302 -303 -304 305 -306 -307 -308 -309 -310 311 -312 -313 -314 -315 -379 -380 -381 382 -383 -384 -385 -386 -387 -388 389 -390 -391 -392 -393 -394 -395 -396 -460 -461 462 -463 -464 -465 -466 -467 -468 -469 -470 -471 -472 -473 474 -475 -476 -477 -487 -488 -489 -490 -491 -492 -493 -494 495 -496 -497 498 -499 -500 -501 -502 -503 -504 541 -542 -543 -544 -545 -546 -547 -548 -549 -550 -551 -552 553 -554 -555 -556 -557 -558 -622 -623 -624 -625 -626 -627 628 -629 -630 -631 -632 -633 -634 -635 -636 -637 -638 639 -685 -686 -687 -688 -689 -690 -691 -692 693 694 -695 -696 -697 -698 -699 -700 -701 -702 0